(set-info :source |
 Generated by Alive 0.1
 More info in N. P. Lopes, D. Menendez, S. Nagarakatte, J. Regehr.
 Provably Correct Peephole Optimizations with Alive. In PLDI'15.
|)

(set-info :status unknown)
(declare-fun %b () (_ BitVec 57))
(declare-fun %a () (_ BitVec 57))
(assert
 (and (distinct (bvxor ((_ extract 40 0) %a) ((_ extract 40 0) %b)) ((_ extract 40 0) (bvxor %a %b))) true))
(check-sat)
